c  ---------------------------------------
c 1.  Por forma a codificar este puzzle como problema SAT, defina um conjunto adequado de
c     variáveis proposicionais,
c     exprima  as  regras  acima  como  fórmulas  proposicionais,  e converta essas fórmulas para CNF.
c  ---------------------------------------

c  ser sócio → 1
c  ser loiro → 2
c  ir ao sábado → 3
c  ser adulto → 4
c  usar chapéu → 5
c  usar anel → 6

c  Os sócios loiros não podem ir ao Sábado.
c  (1 ∧ 2) → ¬3
c  ≡
c  ¬1 ∨ ¬2 ∨ ¬3
c
c  Quem não for adulto têm que usar chapéu.
c  ¬4 → 5
c  ≡
c  4 ∨ 5
c
c  Cada sócio usa anel ou não usa chapéu.
c  1 → (6 ∨ ¬5)
c  ≡
c  ¬1 ∨ 6 ∨ ¬5
c
c  Um sócio vai ao Sábado se e só se é adulto. (Primeira implicação, porque "se e só se" é uma equivalência)
c  1 ∧ 3 → 4
c  ≡
c  ¬1 ∨ ¬ 3 ∨ 4
c
c  Um sócio vai ao Sábado se e só se é adulto. (Segunda implicação, porque "se e só se" é uma equivalência)
c  4 → 1 ∧ 3
c  ≡
c  (¬4 ∨ 1) ∧ (¬4 ∨ 3)
c
c  Todos os sócios adultos têm que usar anel.
c  (1 ∧ 4) → 6
c  ≡
c  ¬1 ∨ ¬4 ∨ 6
c
c  Quem usa anel tem que ser loiro.
c  6 → 2
c  ≡
c  ¬6 ∨ 2

c  Temos então,
c  (¬1 ∨ ¬2 ∨ ¬3) ∧ (4 ∨ 5) ∧ (¬1 ∨ 6 ∨ ¬5) ∧ (¬3 ∨ 4 ∨ ¬1) ∧ (¬1 ∨ ¬4 ∨ 6) ∧ (¬6 ∨ 2)

p cnf 6 8
-1 -2 -3 0
4 5 0
-1 6 -5 0
-1 -3 4 0
-4 1 0
-4 3 0
-1 -4 6 0
-6 2 0

c  ---------------------------------------
c 2. Comprove, utilizando um SAT solver, que o problema é consistente.
c SAT
c -1 2 -3 -4 5 6 0 (Ser loiro (2), ter anel (6) e chapeu (5))
c Sendo SAT então podemos concluir que é consistente.
c  ---------------------------------------
